1.0 2.6 7544.66
1.0 2.8 7571.92
1.0 3.0 7544.37
1.0 3.2 7663.59
1.0 3.4 7571.62
1.0 3.6 7663.59
1.0 3.8 7571.62
1.0 4.0 7658.96
1.0 4.2 7544.37
1.0 4.4 7663.59
1.0 4.6 7663.59
1.0 4.8 7544.37
1.0 5.0 7663.59
1.0 5.4 7598.74
1.0 5.6 7598.74
1.0 5.8 7598.74